12
48
1213
1019
983
1245
945
1038
1228
1089
1294
1301
1146
709
74	84
432	442
321	331
392	402
79	89
543	553
507	517
949	959
580	590
331	341
716	726
715	725
549	559
598	608
485	495
770	780
134	144
938	948
805	815
333	343
132	142
892	902
802	812
641	651
255	265
483	493
769	779
11	21
359	369
808	818
697	707
899	909
121	131
985	995
928	938
741	751
362	372
980	990
474	484
620	630
115	125
377	387
443	453
339	349
684	694
521	531
908	918
824	834
